\ This file has been generated by DOcplex
\ ENCODING=ISO-8859-1
\Problem name: Placement EV Chargers - Location Improvement

Minimize
 obj: 5000 v_0 + 5000 v_1 + 5000 v_2 + 5000 v_3 + 5000 v_4 + 5000 v_5 + 500 w_0
      + 500 w_1 + 500 w_2 + 500 w_3 + 500 w_4 + 500 w_5
      + 288.493606498184 u_0_0_0 + 315.716933718708 u_0_0_1
      + 44.607732455671 u_0_0_2 + 351.825695570901 u_0_0_3
      + 357.393045780876 u_0_0_4 + 372.501474573062 u_0_0_5
      + 245.054948432951 u_0_1_0 + 369.849510733523 u_0_1_2
      + 321.642505541572 u_0_1_3 + 130.004090073388 u_0_2_0
      + 283.439127412309 u_0_2_1 + 342.327267427982 u_0_2_2
      + 92.965398482043 u_0_2_3 + 95.001644469481 u_0_2_4
      + 92.372807429986 u_0_2_5 + 233.248500522012 u_0_3_0
      + 389.177017651793 u_0_3_1 + 147.860093666856 u_0_3_2
      + 311.017158705531 u_0_3_3 + 369.234506282524 u_0_3_4
      + 379.037760568607 u_0_3_5 + 396.449622348389 u_1_0_0
      + 234.700917706440 u_1_0_1 + 119.112609794943 u_1_0_2
      + 438.069407803354 u_1_0_3 + 376.633119718149 u_1_0_4
      + 397.122127568401 u_1_0_5 + 126.325768618455 u_1_1_0
      + 354.506296606880 u_1_1_1 + 405.336612293967 u_1_1_2
      + 46.669336771079 u_1_1_3 + 140.842774675808 u_1_1_4
      + 126.471870998500 u_1_1_5 + 453.993060611848 u_1_2_0
      + 80.356581170789 u_1_2_1 + 325.537035046530 u_1_2_2
      + 453.390062827839 u_1_2_3 + 310.111634055657 u_1_2_4
      + 332.061322089591 u_1_2_5
Subject To
 number_w_0: w_0 - 8 v_0 <= 0
 number_w_1: w_1 - 8 v_1 <= 0
 number_w_2: w_2 - 8 v_2 <= 0
 number_w_3: w_3 - 8 v_3 <= 0
 number_w_4: w_4 - 8 v_4 <= 0
 number_w_5: w_5 - 8 v_5 <= 0
 number_v_0: v_0 - w_0 <= 0
 number_v_1: v_1 - w_1 <= 0
 number_v_2: v_2 - w_2 <= 0
 number_v_3: v_3 - w_3 <= 0
 number_v_4: v_4 - w_4 <= 0
 number_v_5: v_5 - w_5 <= 0
 allocation_qw_0_0: u_0_0_0 + u_0_1_0 + u_0_2_0 + u_0_3_0 - 2 w_0 <= 0
 allocation_qw_0_1: u_0_0_1 + u_0_2_1 + u_0_3_1 - 2 w_1 <= 0
 allocation_qw_0_2: u_0_0_2 + u_0_1_2 + u_0_2_2 + u_0_3_2 - 2 w_2 <= 0
 allocation_qw_0_3: u_0_0_3 + u_0_1_3 + u_0_2_3 + u_0_3_3 - 2 w_3 <= 0
 allocation_qw_0_4: u_0_0_4 + u_0_2_4 + u_0_3_4 - 2 w_4 <= 0
 allocation_qw_0_5: u_0_0_5 + u_0_2_5 + u_0_3_5 - 2 w_5 <= 0
 service_level_0: u_0_0_0 + u_0_0_1 + u_0_0_2 + u_0_0_3 + u_0_0_4 + u_0_0_5
                  + u_0_1_0 + u_0_1_2 + u_0_1_3 + u_0_2_0 + u_0_2_1 + u_0_2_2
                  + u_0_2_3 + u_0_2_4 + u_0_2_5 + u_0_3_0 + u_0_3_1 + u_0_3_2
                  + u_0_3_3 + u_0_3_4 + u_0_3_5 >= 3.800000000000
 charger_allocation_0_0: u_0_0_0 + u_0_0_1 + u_0_0_2 + u_0_0_3 + u_0_0_4
                         + u_0_0_5 <= 1
 charger_allocation_0_1: u_0_1_0 + u_0_1_2 + u_0_1_3 <= 1
 charger_allocation_0_2: u_0_2_0 + u_0_2_1 + u_0_2_2 + u_0_2_3 + u_0_2_4
                         + u_0_2_5 <= 1
 charger_allocation_0_3: u_0_3_0 + u_0_3_1 + u_0_3_2 + u_0_3_3 + u_0_3_4
                         + u_0_3_5 <= 1
 allocation_qw_1_0: u_1_0_0 + u_1_1_0 + u_1_2_0 - 2 w_0 <= 0
 allocation_qw_1_1: u_1_0_1 + u_1_1_1 + u_1_2_1 - 2 w_1 <= 0
 allocation_qw_1_2: u_1_0_2 + u_1_1_2 + u_1_2_2 - 2 w_2 <= 0
 allocation_qw_1_3: u_1_0_3 + u_1_1_3 + u_1_2_3 - 2 w_3 <= 0
 allocation_qw_1_4: u_1_0_4 + u_1_1_4 + u_1_2_4 - 2 w_4 <= 0
 allocation_qw_1_5: u_1_0_5 + u_1_1_5 + u_1_2_5 - 2 w_5 <= 0
 service_level_1: u_1_0_0 + u_1_0_1 + u_1_0_2 + u_1_0_3 + u_1_0_4 + u_1_0_5
                  + u_1_1_0 + u_1_1_1 + u_1_1_2 + u_1_1_3 + u_1_1_4 + u_1_1_5
                  + u_1_2_0 + u_1_2_1 + u_1_2_2 + u_1_2_3 + u_1_2_4 + u_1_2_5
                   >= 2.850000000000
 charger_allocation_1_0: u_1_0_0 + u_1_0_1 + u_1_0_2 + u_1_0_3 + u_1_0_4
                         + u_1_0_5 <= 1
 charger_allocation_1_1: u_1_1_0 + u_1_1_1 + u_1_1_2 + u_1_1_3 + u_1_1_4
                         + u_1_1_5 <= 1
 charger_allocation_1_2: u_1_2_0 + u_1_2_1 + u_1_2_2 + u_1_2_3 + u_1_2_4
                         + u_1_2_5 <= 1

Bounds
 0 <= v_0 <= 1
 0 <= v_1 <= 1
 0 <= v_2 <= 1
 0 <= v_3 <= 1
 0 <= v_4 <= 1
 0 <= v_5 <= 1
 0 <= u_0_0_0 <= 1
 0 <= u_0_0_1 <= 1
 0 <= u_0_0_2 <= 1
 0 <= u_0_0_3 <= 1
 0 <= u_0_0_4 <= 1
 0 <= u_0_0_5 <= 1
 0 <= u_0_1_0 <= 1
 0 <= u_0_1_2 <= 1
 0 <= u_0_1_3 <= 1
 0 <= u_0_2_0 <= 1
 0 <= u_0_2_1 <= 1
 0 <= u_0_2_2 <= 1
 0 <= u_0_2_3 <= 1
 0 <= u_0_2_4 <= 1
 0 <= u_0_2_5 <= 1
 0 <= u_0_3_0 <= 1
 0 <= u_0_3_1 <= 1
 0 <= u_0_3_2 <= 1
 0 <= u_0_3_3 <= 1
 0 <= u_0_3_4 <= 1
 0 <= u_0_3_5 <= 1
 0 <= u_1_0_0 <= 1
 0 <= u_1_0_1 <= 1
 0 <= u_1_0_2 <= 1
 0 <= u_1_0_3 <= 1
 0 <= u_1_0_4 <= 1
 0 <= u_1_0_5 <= 1
 0 <= u_1_1_0 <= 1
 0 <= u_1_1_1 <= 1
 0 <= u_1_1_2 <= 1
 0 <= u_1_1_3 <= 1
 0 <= u_1_1_4 <= 1
 0 <= u_1_1_5 <= 1
 0 <= u_1_2_0 <= 1
 0 <= u_1_2_1 <= 1
 0 <= u_1_2_2 <= 1
 0 <= u_1_2_3 <= 1
 0 <= u_1_2_4 <= 1
 0 <= u_1_2_5 <= 1

Binaries
 v_0 v_1 v_2 v_3 v_4 v_5 u_0_0_0 u_0_0_1 u_0_0_2 u_0_0_3 u_0_0_4 u_0_0_5 u_0_1_0
 u_0_1_2 u_0_1_3 u_0_2_0 u_0_2_1 u_0_2_2 u_0_2_3 u_0_2_4 u_0_2_5 u_0_3_0 u_0_3_1
 u_0_3_2 u_0_3_3 u_0_3_4 u_0_3_5 u_1_0_0 u_1_0_1 u_1_0_2 u_1_0_3 u_1_0_4 u_1_0_5
 u_1_1_0 u_1_1_1 u_1_1_2 u_1_1_3 u_1_1_4 u_1_1_5 u_1_2_0 u_1_2_1 u_1_2_2 u_1_2_3
 u_1_2_4 u_1_2_5

Generals
 w_0 w_1 w_2 w_3 w_4 w_5
End
